NAME : local_10
TYPE : ATSP
DIMENSION : 7
EDGE_WEIGHT_TYPE : EXPLICIT
EDGE_WEIGHT_FORMAT : FULL_MATRIX
EDGE_WEIGHT_SECTION
0 10000000 219 936 10000000 1011 630 
0 0 10000000 10000000 376 237 10000000 
0 10000000 0 10000000 10000000 10000000 567 
0 10000000 10000000 0 881 1149 577 
0 376 10000000 881 0 508 10000000 
0 237 10000000 1109 508 0 10000000 
0 10000000 10000000 10000000 10000000 10000000 0 
EOF